NAME          
ROWS
 N  OBJ
 L  c1
COLUMNS
    MARKER    'MARKER'                 'INTORG'
    x[1]      c1        415
    x[1]      OBJ       -318
    x[2]      c1        664
    x[2]      OBJ       -707
    x[3]      c1        313
    x[3]      OBJ       -243
    x[4]      c1        940
    x[4]      OBJ       -974
    x[5]      c1        1007
    x[5]      OBJ       -998
    x[6]      c1        719
    x[6]      OBJ       -664
    x[7]      c1        919
    x[7]      OBJ       -896
    x[8]      c1        69
    x[8]      OBJ       -16
    x[9]      c1        269
    x[9]      OBJ       -304
    x[10]     c1        840
    x[10]     OBJ       -779
    x[11]     c1        401
    x[11]     OBJ       -390
    x[12]     c1        606
    x[12]     OBJ       -634
    x[13]     c1        199
    x[13]     OBJ       -127
    x[14]     c1        765
    x[14]     OBJ       -828
    x[15]     c1        891
    x[15]     OBJ       -923
    x[16]     c1        1074
    x[16]     OBJ       -997
    x[17]     c1        7
    x[17]     OBJ       -66
    x[18]     c1        834
    x[18]     OBJ       -749
    x[19]     c1        -12
    x[19]     OBJ       -39
    x[20]     c1        363
    x[20]     OBJ       -268
    x[21]     c1        603
    x[21]     OBJ       -655
    x[22]     c1        863
    x[22]     OBJ       -863
    x[23]     c1        507
    x[23]     OBJ       -564
    x[24]     c1        346
    x[24]     OBJ       -370
    x[25]     c1        72
    x[25]     OBJ       -83
    x[26]     c1        303
    x[26]     OBJ       -317
    x[27]     c1        235
    x[27]     OBJ       -315
    x[28]     c1        854
    x[28]     OBJ       -761
    x[29]     c1        108
    x[29]     OBJ       -24
    x[30]     c1        847
    x[30]     OBJ       -932
    x[31]     c1        867
    x[31]     OBJ       -788
    x[32]     c1        72
    x[32]     OBJ       -133
    x[33]     c1        559
    x[33]     OBJ       -622
    x[34]     c1        -28
    x[34]     OBJ       -13
    x[35]     c1        514
    x[35]     OBJ       -497
    x[36]     c1        521
    x[36]     OBJ       -597
    x[37]     c1        390
    x[37]     OBJ       -400
    x[38]     c1        269
    x[38]     OBJ       -236
    x[39]     c1        46
    x[39]     OBJ       -124
    x[40]     c1        920
    x[40]     OBJ       -963
    x[41]     c1        5
    x[41]     OBJ       -4
    x[42]     c1        236
    x[42]     OBJ       -320
    x[43]     c1        317
    x[43]     OBJ       -314
    x[44]     c1        -82
    x[44]     OBJ       -12
    x[45]     c1        -17
    x[45]     OBJ       -40
    x[46]     c1        318
    x[46]     OBJ       -257
    x[47]     c1        740
    x[47]     OBJ       -791
    x[48]     c1        1007
    x[48]     OBJ       -985
    x[49]     c1        178
    x[49]     OBJ       -156
    x[50]     c1        597
    x[50]     OBJ       -583
RHS
    rhs       c1        11725
RANGES
BOUNDS
 BV bounds    x[1]
 BV bounds    x[2]
 BV bounds    x[3]
 BV bounds    x[4]
 BV bounds    x[5]
 BV bounds    x[6]
 BV bounds    x[7]
 BV bounds    x[8]
 BV bounds    x[9]
 BV bounds    x[10]
 BV bounds    x[11]
 BV bounds    x[12]
 BV bounds    x[13]
 BV bounds    x[14]
 BV bounds    x[15]
 BV bounds    x[16]
 BV bounds    x[17]
 BV bounds    x[18]
 BV bounds    x[19]
 BV bounds    x[20]
 BV bounds    x[21]
 BV bounds    x[22]
 BV bounds    x[23]
 BV bounds    x[24]
 BV bounds    x[25]
 BV bounds    x[26]
 BV bounds    x[27]
 BV bounds    x[28]
 BV bounds    x[29]
 BV bounds    x[30]
 BV bounds    x[31]
 BV bounds    x[32]
 BV bounds    x[33]
 BV bounds    x[34]
 BV bounds    x[35]
 BV bounds    x[36]
 BV bounds    x[37]
 BV bounds    x[38]
 BV bounds    x[39]
 BV bounds    x[40]
 BV bounds    x[41]
 BV bounds    x[42]
 BV bounds    x[43]
 BV bounds    x[44]
 BV bounds    x[45]
 BV bounds    x[46]
 BV bounds    x[47]
 BV bounds    x[48]
 BV bounds    x[49]
 BV bounds    x[50]
ENDATA
